19 965
520 7 440 7 284 7 103 9 923 13
525 7 479 7 358 7 163 9 10 11 816 15 659 22
535 8 494 8 320 11
535 8 494 8 320 11
535 8 494 8 321 11
520 7 479 7 356 7 157 9 9 11 815 15 656 22
525 7 477 7 391 7 243 9 78 11 921 15
525 7 477 7 391 7 243 9 78 11 920 15
520 7 441 7 296 7 152 12
520 7 441 7 296 7 151 12
535 8 494 8 323 11
525 7 482 7 365 7 212 9 29 11 823 18
528 7 504 7 413 7 254 9 80 11 923 15 770 20
525 7 482 7 362 7 201 9 13 11 819 18
520 7 444 7 352 7 190 9 19 11 841 15 712 23
525 7 482 7 365 7 115 9 943 13
525 7 446 7 267 7 66 9 891 11 731 18
525 7 445 7 264 7 63 9 889 11 721 18
525 7 445 7 264 7 63 9 889 11 721 18
